NAME          ClpDefau
ROWS
 N  OBJROW
 L  R_124_0
 L  R_124_1
 L  R_124_2
 L  R_124_3
 L  R_124_4
 L  R_124_5
 L  R_124_6
 L  R_124_7
 L  R_124_8
 L  R_124_9
 L  R_124_10
 L  R_124_11
 L  R_124_12
 L  R_124_13
 L  R_124_14
 L  R_124_15
 L  R_124_16
 L  R_124_17
 L  R_124_18
 L  R_124_19
 L  R_124_20
 L  R_124_21
 L  R_124_22
 L  R_124_23
 L  R_124_24
 L  R_124_25
 L  R_124_26
 L  R_124_27
 L  R_124_28
 L  R_124_29
 L  R_124_30
 L  R_124_31
COLUMNS
    x_0       OBJROW     -1.           R_124_4   1.          
    x_0       R_124_10  3.             R_124_12  6.          
    x_0       R_124_13  9.             R_124_17  8.          
    x_0       R_124_26  7.          
    x_1       OBJROW     -2.           R_124_13  10.         
    x_1       R_124_28  6.             R_124_31  2.          
    x_2       OBJROW     -2.           R_124_0   1.          
    x_2       R_124_4   9.             R_124_5   5.          
    x_2       R_124_11  6.             R_124_14  2.          
    x_2       R_124_16  1.             R_124_18  3.          
    x_2       R_124_21  10.            R_124_22  4.          
    x_2       R_124_23  1.             R_124_24  10.         
    x_3       OBJROW     -6.           R_124_0   5.          
    x_3       R_124_8   8.             R_124_24  3.          
    x_3       R_124_25  4.          
    x_4       OBJROW     -3.           R_124_8   1.          
    x_4       R_124_10  9.             R_124_13  3.          
    x_4       R_124_15  1.             R_124_27  7.          
    x_5       OBJROW     -5.           R_124_1   2.          
    x_5       R_124_6   7.             R_124_7   5.          
    x_5       R_124_8   1.             R_124_10  8.          
    x_5       R_124_14  1.             R_124_17  8.          
    x_5       R_124_18  10.            R_124_21  6.          
    x_5       R_124_23  2.             R_124_24  10.         
    x_5       R_124_29  8.          
    x_6       OBJROW     -5.           R_124_20  6.          
    x_6       R_124_21  9.             R_124_22  7.          
    x_6       R_124_28  5.          
    x_7       OBJROW     -10.          R_124_1   5.          
    x_7       R_124_2   9.             R_124_9   3.          
    x_7       R_124_16  8.             R_124_22  5.          
    x_8       OBJROW     -4.           R_124_8   8.          
    x_8       R_124_12  2.             R_124_13  4.          
    x_8       R_124_18  9.             R_124_20  10.         
    x_8       R_124_24  7.             R_124_27  4.          
    x_9       OBJROW     -10.          R_124_2   10.         
    x_9       R_124_8   2.             R_124_18  8.          
    x_9       R_124_22  9.             R_124_24  1.          
    x_10      OBJROW     -1.           R_124_2   6.          
    x_10      R_124_9   4.             R_124_21  7.          
    x_10      R_124_30  8.          
    x_11      OBJROW     -10.          R_124_2   4.          
    x_11      R_124_6   3.             R_124_30  6.          
    x_12      OBJROW     -3.           R_124_0   3.          
    x_12      R_124_4   3.             R_124_16  6.          
    x_12      R_124_22  6.             R_124_31  3.          
    x_13      OBJROW     -7.           R_124_0   2.          
    x_13      R_124_3   9.             R_124_5   10.         
    x_13      R_124_8   8.             R_124_13  9.          
    x_13      R_124_21  2.             R_124_24  9.          
    x_13      R_124_26  5.          
    x_14      OBJROW     -7.           R_124_0   7.          
    x_14      R_124_2   8.             R_124_3   8.          
    x_14      R_124_7   9.             R_124_9   9.          
    x_14      R_124_15  8.             R_124_16  9.          
    x_14      R_124_17  2.             R_124_31  4.          
    x_15      OBJROW     -9.           R_124_0   4.          
    x_15      R_124_16  9.             R_124_20  3.          
    x_15      R_124_25  4.             R_124_28  4.          
    x_15      R_124_30  9.          
RHS
    RHS       R_124_0   16.            R_124_1   21.         
    RHS       R_124_2   19.            R_124_3   21.         
    RHS       R_124_4   18.            R_124_5   17.         
    RHS       R_124_6   17.            R_124_7   18.         
    RHS       R_124_8   21.            R_124_9   18.         
    RHS       R_124_10  20.            R_124_11  20.         
    RHS       R_124_12  16.            R_124_13  19.         
    RHS       R_124_14  19.            R_124_15  21.         
    RHS       R_124_16  21.            R_124_17  16.         
    RHS       R_124_18  19.            R_124_19  18.         
    RHS       R_124_20  21.            R_124_21  16.         
    RHS       R_124_22  21.            R_124_23  21.         
    RHS       R_124_24  21.            R_124_25  18.         
    RHS       R_124_26  16.            R_124_27  17.         
    RHS       R_124_28  19.            R_124_29  18.         
    RHS       R_124_30  18.            R_124_31  20.         
BOUNDS
 UI BOUND     x_0       10.         
 UI BOUND     x_1       10.         
 UI BOUND     x_2       10.         
 UI BOUND     x_3       10.         
 UI BOUND     x_4       10.         
 UI BOUND     x_5       10.         
 UI BOUND     x_6       10.         
 UI BOUND     x_7       10.         
 UI BOUND     x_8       10.         
 UI BOUND     x_9       10.         
 UI BOUND     x_10      10.         
 UI BOUND     x_11      10.         
 UI BOUND     x_12      10.         
 UI BOUND     x_13      10.         
 UI BOUND     x_14      10.         
 UI BOUND     x_15      10.         
ENDATA
